results/res_prop_muc/res_Cimatti_mathsat_cores/QF_IDL/jobshop12-2-6-6-4-4-11.smt.smt2.res
unsat
( c159
  c160
  c161
  c162
  c163
  c164
  c165
  c166
  c167
  c168
  c169
  c17
  c170
  c171
  c172
  c173
  c174
  c175
  c176
  c177
  c178
  c179
  c18
  c185
  c186
  c187
  c188
  c189
  c19
  c190
  c191
  c197
  c198
  c199
  c20
  c200
  c201
  c202
  c203
  c209
  c21
  c210
  c211
  c212
  c213
  c214
  c215
  c22
  c23
  c41
  c42
  c43
  c44
  c45
  c46
  c47 )
